
Gurobi 10.0.1 (linux64) logging started Sat 12 Aug 2023 06:15:12 AM CDT

Set parameter LogFile to value "/home/dlcole3/graph_abstraction/plasmoexamples/SHP_serial/SHP_reserve_requirements/gurobi_logs/logfile12.log"
Set parameter NodefileStart to value 0.0005
Set parameter TimeLimit to value 36000
Gurobi Optimizer version 10.0.1 build v10.0.1rc0 (linux64)

CPU model: Intel(R) Xeon(R) CPU E5-2698 v4 @ 2.20GHz, instruction set [SSE2|AVX|AVX2]
Thread count: 40 physical cores, 80 logical processors, using up to 8 threads


Warning: excessive time spent in model updates.
Consider calling update less frequently.

Optimize a model with 1105538 rows, 641709 columns and 4644125 nonzeros
Model fingerprint: 0x5307679e
Variable types: 599982 continuous, 41727 integer (41727 binary)
Coefficient statistics:
  Matrix range     [5e-02, 2e+04]
  Objective range  [2e-01, 8e+04]
  Bounds range     [5e-02, 2e+04]
  RHS range        [1e-02, 7e+03]
Presolve removed 263177 rows and 118116 columns (presolve time = 5s) ...
Presolve removed 276884 rows and 124915 columns (presolve time = 10s) ...
Presolve removed 278999 rows and 127979 columns (presolve time = 15s) ...
Presolve removed 284775 rows and 132539 columns (presolve time = 20s) ...
Presolve removed 291610 rows and 132764 columns (presolve time = 25s) ...
Presolve removed 292350 rows and 133480 columns (presolve time = 30s) ...
Presolve removed 292414 rows and 133530 columns (presolve time = 35s) ...
Presolve removed 292414 rows and 133530 columns (presolve time = 40s) ...
Presolve removed 292714 rows and 133574 columns (presolve time = 45s) ...
Sparsify removed 192860 nonzeros (5%)
Presolve removed 292714 rows and 132156 columns
Presolve time: 47.05s
Presolved: 812824 rows, 509553 columns, 3955754 nonzeros
Variable types: 475917 continuous, 33636 integer (33578 binary)

Deterministic concurrent LP optimizer: primal simplex, dual simplex, and barrier
Showing barrier log only...

Root barrier log...

Elapsed ordering time = 5s
Elapsed ordering time = 17s
Elapsed ordering time = 20s
Elapsed ordering time = 25s
Elapsed ordering time = 31s
Elapsed ordering time = 35s
Elapsed ordering time = 40s
Elapsed ordering time = 46s
Elapsed ordering time = 50s
Elapsed ordering time = 55s
Elapsed ordering time = 59s
Elapsed ordering time = 60s
Elapsed ordering time = 65s
Elapsed ordering time = 70s
Ordering time: 72.18s

Barrier statistics:
 Dense cols : 204
 AA' NZ     : 2.363e+07
 Factor NZ  : 3.738e+08 (roughly 3.5 GB of memory)
 Factor Ops : 1.970e+12 (roughly 16 seconds per iteration)
 Threads    : 5

                  Objective                Residual
Iter       Primal          Dual         Primal    Dual     Compl     Time
   0  -2.12869337e+11 -1.80148682e+13  1.24e+04 1.14e+04  1.16e+08   159s
   1  -1.45185557e+11 -1.26405466e+13  8.57e+03 8.19e+04  6.96e+07   175s
   2  -7.51315049e+10 -7.94172277e+12  4.59e+03 1.06e+04  3.47e+07   191s
   3  -1.98731224e+10 -3.05926850e+12  1.40e+03 2.15e+00  9.85e+06   207s
   4  -4.47634231e+09 -1.36673580e+12  5.13e+02 6.82e-01  3.42e+06   225s
   5   3.02193096e+09 -6.63424270e+11  1.19e+02 1.34e-01  9.11e+05   242s
   6   4.60473034e+09 -2.61466051e+11  3.54e+01 2.17e-02  2.62e+05   261s
   7   4.36350370e+09 -8.96387718e+10  1.13e+01 2.91e-02  7.56e+04   279s
   8   2.81268238e+09 -3.56149980e+10  3.45e+00 1.40e-02  2.61e+04   296s
   9   6.60580056e+08 -8.31936420e+09  6.57e-01 2.19e-03  5.59e+03   316s
  10   1.24137539e+08 -6.93741973e+08  4.33e-02 3.32e-04  4.87e+02   337s
  11   7.05008194e+07 -1.34176969e+08  1.10e-03 1.48e-04  1.20e+02   358s
  12   5.99831829e+07 -6.97549239e+07  2.96e-04 1.04e-04  7.63e+01   376s
  13   5.36163641e+07 -8.69575410e+06  1.20e-04 1.26e-04  3.66e+01   394s
  14   4.95292444e+07  9.19178933e+06  6.52e-05 1.09e-04  2.37e+01   414s
  15   4.66161966e+07  2.45616448e+07  3.42e-05 1.66e-04  1.30e+01   432s
  16   4.55895359e+07  2.97751382e+07  2.55e-05 1.32e-04  9.30e+00   449s
  17   4.45836414e+07  3.51470693e+07  1.81e-05 8.26e-05  5.55e+00   466s
  18   4.32988355e+07  3.75178808e+07  9.93e-06 4.90e-05  3.40e+00   484s
  19   4.24964185e+07  3.89373848e+07  5.31e-06 3.10e-05  2.09e+00   504s
  20   4.21383633e+07  3.97661862e+07  3.50e-06 2.15e-05  1.39e+00   523s
  21   4.18112765e+07  4.04989881e+07  1.97e-06 9.51e-06  7.72e-01   541s
  22   4.17072078e+07  4.06646368e+07  1.52e-06 6.64e-06  6.13e-01   557s
  23   4.15031089e+07  4.09601974e+07  6.86e-07 3.48e-06  3.19e-01   577s
  24   4.13760355e+07  4.12465919e+07  4.08e-07 5.98e-07  7.61e-02   601s
  25   4.13459232e+07  4.12724768e+07  2.59e-07 3.36e-07  4.32e-02   621s
  26   4.13306956e+07  4.12875138e+07  1.62e-07 1.87e-07  2.54e-02   644s
  27   4.13171242e+07  4.13008577e+07  2.51e-07 5.24e-08  9.56e-03   675s
  28   4.13097483e+07  4.13048543e+07  1.47e-07 1.13e-08  2.88e-03   714s
  29   4.13067149e+07  4.13061487e+07  5.77e-08 1.52e-08  3.33e-04   740s
  30   4.13062498e+07  4.13062171e+07  9.01e-07 3.62e-09  1.93e-05   770s
  31   4.13062247e+07  4.13062238e+07  4.86e-08 1.37e-07  5.26e-07   789s
  32   4.13062245e+07  4.13062245e+07  1.06e-07 2.83e-08  7.94e-09   809s

Barrier solved model in 32 iterations and 809.09 seconds (736.39 work units)
Optimal objective 4.13062245e+07


Root crossover log...

  327519 DPushes remaining with DInf 1.5724847e-05               810s
   73167 DPushes remaining with DInf 1.5856920e-05               816s
   24946 DPushes remaining with DInf 0.0000000e+00               821s
    8793 DPushes remaining with DInf 0.0000000e+00               825s
     337 DPushes remaining with DInf 0.0000000e+00               831s
       0 DPushes remaining with DInf 0.0000000e+00               831s

   17650 PPushes remaining with PInf 0.0000000e+00               831s
    2791 PPushes remaining with PInf 0.0000000e+00               835s
       0 PPushes remaining with PInf 0.0000000e+00               836s

  Push phase complete: Pinf 0.0000000e+00, Dinf 9.3468326e-01    836s


Root simplex log...

Iteration    Objective       Primal Inf.    Dual Inf.      Time
  152602    4.1306224e+07   0.000000e+00   9.346828e-01    837s
  152605    4.1306224e+07   0.000000e+00   0.000000e+00    838s
  152605    4.1306224e+07   0.000000e+00   0.000000e+00    840s
Waiting for other threads to finish...         946s
Concurrent spin time: 154.64s (can be avoided by choosing Method=3)

Solved with barrier

Root relaxation: objective 4.130622e+07, 152605 iterations, 942.44 seconds (725.80 work units)
Total elapsed time = 1002.95s
Total elapsed time = 1007.44s

    Nodes    |    Current Node    |     Objective Bounds      |     Work
 Expl Unexpl |  Obj  Depth IntInf | Incumbent    BestBd   Gap | It/Node Time

     0     0 4.1306e+07    0  215          - 4.1306e+07      -     - 1017s
H    0     0                    4.154538e+07 4.1306e+07  0.58%     - 1033s

Explored 1 nodes (152798 simplex iterations) in 1033.54 seconds (802.03 work units)
Thread count was 8 (of 80 available processors)

Solution count 2: 4.15454e+07 4.15454e+07 

Optimal solution found (tolerance 5.00e-02)
Best objective 4.154538277087e+07, best bound 4.130622447785e+07, gap 0.5757%

User-callback calls 170651, time in user-callback 0.63 sec
